50
    93     7    94    91    45    82    19    16    90    84     6    38    21    39    70    64    98    61    40    44    45    57    59    67    51    24    89    62    72    50     5   100    29    13    99    91     9    82    77    88    65    17    63    83    15    66    96     9    42    72
     8     4     4     3     3     5     3     4     9    10     2     3     6     5     8     8     4     2     4     3     5     2     5     3     8     2     3     4     4     6     3     7     1     6     6     2     9    10     8     3     7     5     8     6     3     4     2     9     5     6
     0   214     0     0   501     0   163     0     0   444   403   102   444     0   193     0   402   123     0   338     0   445   469   481   541     0   527     0   472     0     0    31   370     0   465     0    85     0     0     0   248    31   192     0   344   310   375     0     0     0
